/*
DATA SET 6: 
3 esami, 100 studenti, 1 aula, 1 giorno. 
EXPTECTED OUTPUT: UNSATISFIABLE
*/
ESAMI = {AI,IC,CN};
S = 100;
A = 1;
G = 1;

durata = [1,3,4];
capienza = [102];

prenotazioni = [|1,0,0
                |1,0,1
                |1,0,1
                |1,0,1
                |1,0,1
                |1,0,0
                |1,0,1
                |1,0,1
                |1,0,1
                |1,0,1
                |1,0,0
                |1,0,1
                |1,0,1
                |1,0,1
                |1,0,1
                |1,0,0
                |1,0,1
                |1,0,1
                |1,0,1
                |1,0,1
                |1,0,0
                |1,0,1
                |1,0,1
                |1,0,1
                |1,0,1
                |1,0,0
                |1,0,1
                |1,0,1
                |1,0,1
                |1,0,1
                |1,0,0
                |1,0,1
                |1,0,1
                |1,0,1
                |1,0,1
                |1,0,0
                |1,0,1
                |1,0,1
                |1,0,1
                |1,0,1
                |1,0,0
                |1,0,1
                |1,0,1
                |1,0,1
                |1,0,1
                |1,0,0
                |1,0,1
                |1,0,1
                |1,0,1
                |1,0,1
                |1,0,0
                |1,0,1
                |1,0,1
                |1,0,1
                |1,0,1
                |1,0,0
                |1,0,1
                |1,0,1
                |1,0,1
                |1,0,1
                |1,0,0
                |1,0,1
                |1,0,1
                |1,0,1
                |1,0,1
                |1,0,0
                |1,0,1
                |1,0,1
                |1,0,1
                |1,0,1
                |1,0,0
                |1,0,1
                |1,0,1
                |1,0,1
                |1,0,1
                |1,0,0
                |1,0,1
                |1,0,1
                |1,0,1
                |1,0,1
                |1,0,0
                |1,0,1
                |1,0,1
                |1,0,1
                |1,0,1
                |1,0,0
                |1,0,1
                |1,0,1
                |1,0,1
                |1,0,1
                |1,0,0
                |1,0,1
                |1,0,1
                |1,0,1
                |1,0,1
                |1,0,0
                |1,0,1
                |1,0,1
                |1,0,1
                |1,0,1|];